
  12    4
  10   10   10   10

   0   0   0   0   0   2 2 4 
   4  10  10  10  10   3 11 7 3 
   1  10  10  10  10   2 6 5 
  10  10  10  10  10   2 6 5 
   6  10  10  10  10   2 10 9 
   2  10  10  10  10   1 8 
   7  10  10  10  10   1 8 
  10  10  10  10  10   1 12
   5  10  10  10  10   1 12
   7  10  10  10  10   1 12
   4  10  10  10  10   1 12
   0   0   0   0   0   0 
